problems/csplib-prob001/CarSequencing-models/compact/O2/lingeling/model-random16-solution000001.eprime-solution
language ESSENCE' 1.0

letting car_Function1D be
        [14, 7, 3, 19, 3, 3, 7, 3, 3, 20, 3, 10, 18, 3, 7, 3, 3, 20, 3, 3, 16, 19, 3, 7, 3, 3, 20, 3, 7, 3, 19, 12, 7,
         3, 9, 24, 4, 20, 7, 3, 12, 19, 1, 3, 3, 7, 3, 3, 7, 3, 3, 19, 10, 20, 3, 7, 6, 3, 7, 4, 20, 3, 11, 3, 4, 7, 3,
         20, 3, 17, 10, 19, 12, 7, 3, 6, 9, 8, 19, 3, 1, 3, 3, 20, 3, 13, 6, 3, 22, 3, 9, 8, 26, 19, 7, 3, 6, 7, 6, 3,
         7, 3, 3, 7, 3, 9, 20, 7, 3, 3, 7, 12, 3, 25, 2, 3, 3, 20, 3, 26, 9, 10, 3, 20, 7, 3, 12, 9, 3, 7, 3, 6, 16, 6,
         19, 3, 15, 19, 3, 1, 3, 3, 7, 2, 26, 26, 7, 3, 4, 7, 5, 3, 3, 19, 3, 7, 19, 3, 13, 6, 3, 2, 7, 6, 4, 7, 3, 20,
         4, 9, 20, 16, 3, 4, 9, 7, 3, 12, 7, 23, 3, 7, 3, 2, 4, 3, 20, 3, 21, 9, 6, 3, 19, 21, 3, 20, 10, 3, 9,
         8; int(1..200)]
